SECTION Graph 
Nodes 400
Edges 760
E 1 2 40
E 1 21 5
E 2 3 1
E 2 22 4
E 3 4 4
E 3 23 9
E 4 5 4
E 4 24 9
E 5 6 6
E 5 25 6
E 6 7 6
E 6 26 6
E 7 8 9
E 7 27 5
E 8 9 8
E 8 28 1
E 9 10 9
E 9 29 6
E 10 11 45
E 10 30 2
E 11 12 39
E 11 31 8
E 12 13 8
E 12 32 40
E 13 14 5
E 13 33 7
E 14 15 3
E 14 34 41
E 15 16 9
E 15 35 8
E 16 17 9
E 16 36 8
E 17 18 7
E 17 37 8
E 18 19 38
E 18 38 7
E 19 20 7
E 19 39 37
E 20 40 9
E 21 22 6
E 21 41 7
E 22 23 8
E 22 42 8
E 23 24 6
E 23 43 8
E 24 25 4
E 24 44 5
E 25 26 42
E 25 45 44
E 26 27 5
E 26 46 5
E 27 28 8
E 27 47 4
E 28 29 3
E 28 48 4
E 29 30 8
E 29 49 2
E 30 31 4
E 30 50 6
E 31 32 7
E 31 51 5
E 32 33 45
E 32 52 44
E 33 34 41
E 33 53 43
E 34 35 9
E 34 54 38
E 35 36 3
E 35 55 1
E 36 37 7
E 36 56 8
E 37 38 3
E 37 57 42
E 38 39 2
E 38 58 6
E 39 40 3
E 39 59 3
E 40 60 8
E 41 42 4
E 41 61 43
E 42 43 6
E 42 62 7
E 43 44 6
E 43 63 1
E 44 45 44
E 44 64 40
E 45 46 6
E 45 65 3
E 46 47 4
E 46 66 4
E 47 48 4
E 47 67 7
E 48 49 1
E 48 68 41
E 49 50 6
E 49 69 5
E 50 51 4
E 50 70 5
E 51 52 44
E 51 71 44
E 52 53 41
E 52 72 6
E 53 54 38
E 53 73 8
E 54 55 5
E 54 74 40
E 55 56 2
E 55 75 4
E 56 57 9
E 56 76 2
E 57 58 7
E 57 77 39
E 58 59 1
E 58 78 8
E 59 60 9
E 59 79 3
E 60 80 2
E 61 62 37
E 61 81 37
E 62 63 43
E 62 82 3
E 63 64 43
E 63 83 9
E 64 65 1
E 64 84 45
E 65 66 1
E 65 85 1
E 66 67 2
E 66 86 39
E 67 68 6
E 67 87 6
E 68 69 9
E 68 88 9
E 69 70 9
E 69 89 4
E 70 71 3
E 70 90 3
E 71 72 1
E 71 91 1
E 72 73 9
E 72 92 7
E 73 74 6
E 73 93 7
E 74 75 2
E 74 94 6
E 75 76 1
E 75 95 1
E 76 77 9
E 76 96 4
E 77 78 44
E 77 97 1
E 78 79 7
E 78 98 41
E 79 80 8
E 79 99 1
E 80 100 44
E 81 82 7
E 81 101 42
E 82 83 9
E 82 102 7
E 83 84 3
E 83 103 4
E 84 85 45
E 84 104 42
E 85 86 43
E 85 105 4
E 86 87 39
E 86 106 43
E 87 88 7
E 87 107 43
E 88 89 9
E 88 108 5
E 89 90 9
E 89 109 5
E 90 91 1
E 90 110 2
E 91 92 1
E 91 111 1
E 92 93 39
E 92 112 37
E 93 94 8
E 93 113 3
E 94 95 6
E 94 114 3
E 95 96 1
E 95 115 9
E 96 97 7
E 96 116 41
E 97 98 6
E 97 117 8
E 98 99 6
E 98 118 43
E 99 100 8
E 99 119 9
E 100 120 42
E 101 102 44
E 101 121 9
E 102 103 9
E 102 122 2
E 103 104 8
E 103 123 7
E 104 105 9
E 104 124 7
E 105 106 3
E 105 125 6
E 106 107 38
E 106 126 9
E 107 108 3
E 107 127 1
E 108 109 9
E 108 128 1
E 109 110 5
E 109 129 7
E 110 111 37
E 110 130 6
E 111 112 41
E 111 131 42
E 112 113 8
E 112 132 9
E 113 114 1
E 113 133 8
E 114 115 3
E 114 134 9
E 115 116 3
E 115 135 9
E 116 117 40
E 116 136 5
E 117 118 43
E 117 137 37
E 118 119 39
E 118 138 4
E 119 120 38
E 119 139 1
E 120 140 1
E 121 122 6
E 121 141 6
E 122 123 7
E 122 142 6
E 123 124 5
E 123 143 2
E 124 125 6
E 124 144 5
E 125 126 3
E 125 145 3
E 126 127 5
E 126 146 3
E 127 128 6
E 127 147 5
E 128 129 6
E 128 148 8
E 129 130 1
E 129 149 5
E 130 131 8
E 130 150 4
E 131 132 5
E 131 151 45
E 132 133 1
E 132 152 4
E 133 134 2
E 133 153 4
E 134 135 2
E 134 154 4
E 135 136 7
E 135 155 8
E 136 137 5
E 136 156 9
E 137 138 4
E 137 157 3
E 138 139 5
E 138 158 2
E 139 140 3
E 139 159 5
E 140 160 4
E 141 142 9
E 141 161 8
E 142 143 8
E 142 162 4
E 143 144 9
E 143 163 41
E 144 145 4
E 144 164 2
E 145 146 38
E 145 165 44
E 146 147 45
E 146 166 45
E 147 148 42
E 147 167 40
E 148 149 1
E 148 168 6
E 149 150 7
E 149 169 8
E 150 151 5
E 150 170 9
E 151 152 40
E 151 171 41
E 152 153 40
E 152 172 5
E 153 154 3
E 153 173 1
E 154 155 6
E 154 174 5
E 155 156 8
E 155 175 8
E 156 157 5
E 156 176 9
E 157 158 2
E 157 177 2
E 158 159 8
E 158 178 8
E 159 160 8
E 159 179 4
E 160 180 6
E 161 162 8
E 161 181 3
E 162 163 2
E 162 182 5
E 163 164 41
E 163 183 9
E 164 165 37
E 164 184 41
E 165 166 43
E 165 185 39
E 166 167 39
E 166 186 9
E 167 168 9
E 167 187 4
E 168 169 8
E 168 188 3
E 169 170 4
E 169 189 6
E 170 171 38
E 170 190 38
E 171 172 3
E 171 191 9
E 172 173 1
E 172 192 1
E 173 174 8
E 173 193 1
E 174 175 3
E 174 194 8
E 175 176 7
E 175 195 1
E 176 177 9
E 176 196 8
E 177 178 6
E 177 197 38
E 178 179 7
E 178 198 7
E 179 180 3
E 179 199 8
E 180 200 3
E 181 182 38
E 181 201 8
E 182 183 2
E 182 202 7
E 183 184 3
E 183 203 6
E 184 185 39
E 184 204 5
E 185 186 9
E 185 205 7
E 186 187 3
E 186 206 1
E 187 188 3
E 187 207 2
E 188 189 2
E 188 208 4
E 189 190 45
E 189 209 45
E 190 191 1
E 190 210 39
E 191 192 5
E 191 211 7
E 192 193 5
E 192 212 6
E 193 194 7
E 193 213 2
E 194 195 9
E 194 214 1
E 195 196 2
E 195 215 4
E 196 197 6
E 196 216 9
E 197 198 2
E 197 217 45
E 198 199 8
E 198 218 3
E 199 200 2
E 199 219 37
E 200 220 2
E 201 202 2
E 201 221 2
E 202 203 1
E 202 222 4
E 203 204 7
E 203 223 2
E 204 205 3
E 204 224 6
E 205 206 3
E 205 225 4
E 206 207 6
E 206 226 8
E 207 208 4
E 207 227 9
E 208 209 1
E 208 228 5
E 209 210 43
E 209 229 7
E 210 211 7
E 210 230 5
E 211 212 9
E 211 231 5
E 212 213 3
E 212 232 3
E 213 214 44
E 213 233 1
E 214 215 42
E 214 234 7
E 215 216 5
E 215 235 45
E 216 217 6
E 216 236 3
E 217 218 8
E 217 237 37
E 218 219 6
E 218 238 7
E 219 220 39
E 219 239 7
E 220 240 39
E 221 222 40
E 221 241 7
E 222 223 5
E 222 242 2
E 223 224 6
E 223 243 1
E 224 225 38
E 224 244 38
E 225 226 37
E 225 245 38
E 226 227 4
E 226 246 6
E 227 228 7
E 227 247 2
E 228 229 3
E 228 248 8
E 229 230 3
E 229 249 9
E 230 231 7
E 230 250 3
E 231 232 2
E 231 251 1
E 232 233 5
E 232 252 2
E 233 234 6
E 233 253 9
E 234 235 1
E 234 254 4
E 235 236 4
E 235 255 43
E 236 237 6
E 236 256 6
E 237 238 2
E 237 257 38
E 238 239 1
E 238 258 4
E 239 240 1
E 239 259 4
E 240 260 4
E 241 242 4
E 241 261 8
E 242 243 2
E 242 262 2
E 243 244 3
E 243 263 3
E 244 245 39
E 244 264 8
E 245 246 9
E 245 265 43
E 246 247 9
E 246 266 8
E 247 248 8
E 247 267 4
E 248 249 8
E 248 268 1
E 249 250 8
E 249 269 8
E 250 251 40
E 250 270 9
E 251 252 2
E 251 271 41
E 252 253 4
E 252 272 8
E 253 254 5
E 253 273 45
E 254 255 1
E 254 274 3
E 255 256 9
E 255 275 7
E 256 257 1
E 256 276 8
E 257 258 39
E 257 277 2
E 258 259 6
E 258 278 4
E 259 260 6
E 259 279 8
E 260 280 8
E 261 262 41
E 261 281 38
E 262 263 41
E 262 282 40
E 263 264 6
E 263 283 8
E 264 265 5
E 264 284 5
E 265 266 8
E 265 285 45
E 266 267 5
E 266 286 8
E 267 268 1
E 267 287 4
E 268 269 4
E 268 288 9
E 269 270 5
E 269 289 8
E 270 271 3
E 270 290 7
E 271 272 9
E 271 291 38
E 272 273 2
E 272 292 8
E 273 274 5
E 273 293 42
E 274 275 6
E 274 294 3
E 275 276 5
E 275 295 4
E 276 277 7
E 276 296 4
E 277 278 2
E 277 297 9
E 278 279 2
E 278 298 8
E 279 280 1
E 279 299 2
E 280 300 9
E 281 282 40
E 281 301 43
E 282 283 2
E 282 302 4
E 283 284 4
E 283 303 9
E 284 285 45
E 284 304 40
E 285 286 9
E 285 305 9
E 286 287 8
E 286 306 6
E 287 288 6
E 287 307 6
E 288 289 7
E 288 308 2
E 289 290 3
E 289 309 4
E 290 291 5
E 290 310 4
E 291 292 40
E 291 311 2
E 292 293 40
E 292 312 39
E 293 294 41
E 293 313 38
E 294 295 41
E 294 314 7
E 295 296 38
E 295 315 44
E 296 297 4
E 296 316 45
E 297 298 4
E 297 317 6
E 298 299 40
E 298 318 5
E 299 300 6
E 299 319 37
E 300 320 7
E 301 302 1
E 301 321 7
E 302 303 1
E 302 322 1
E 303 304 4
E 303 323 6
E 304 305 8
E 304 324 8
E 305 306 2
E 305 325 2
E 306 307 9
E 306 326 7
E 307 308 8
E 307 327 1
E 308 309 5
E 308 328 8
E 309 310 42
E 309 329 43
E 310 311 4
E 310 330 2
E 311 312 1
E 311 331 2
E 312 313 37
E 312 332 44
E 313 314 8
E 313 333 37
E 314 315 6
E 314 334 9
E 315 316 44
E 315 335 40
E 316 317 43
E 316 336 4
E 317 318 6
E 317 337 41
E 318 319 4
E 318 338 6
E 319 320 42
E 319 339 38
E 320 340 45
E 321 322 4
E 321 341 4
E 322 323 8
E 322 342 5
E 323 324 9
E 323 343 5
E 324 325 4
E 324 344 1
E 325 326 6
E 325 345 4
E 326 327 9
E 326 346 3
E 327 328 2
E 327 347 1
E 328 329 4
E 328 348 2
E 329 330 7
E 329 349 1
E 330 331 3
E 330 350 5
E 331 332 1
E 331 351 5
E 332 333 44
E 332 352 42
E 333 334 39
E 333 353 6
E 334 335 45
E 334 354 8
E 335 336 8
E 335 355 45
E 336 337 3
E 336 356 8
E 337 338 44
E 337 357 45
E 338 339 40
E 338 358 8
E 339 340 44
E 339 359 3
E 340 360 7
E 341 342 3
E 341 361 8
E 342 343 7
E 342 362 7
E 343 344 9
E 343 363 42
E 344 345 5
E 344 364 2
E 345 346 3
E 345 365 8
E 346 347 7
E 346 366 2
E 347 348 9
E 347 367 4
E 348 349 3
E 348 368 44
E 349 350 7
E 349 369 6
E 350 351 37
E 350 370 7
E 351 352 45
E 351 371 1
E 352 353 4
E 352 372 1
E 353 354 4
E 353 373 6
E 354 355 4
E 354 374 8
E 355 356 42
E 355 375 4
E 356 357 45
E 356 376 43
E 357 358 1
E 357 377 9
E 358 359 4
E 358 378 9
E 359 360 6
E 359 379 9
E 360 380 5
E 361 362 4
E 361 381 2
E 362 363 3
E 362 382 3
E 363 364 40
E 363 383 44
E 364 365 7
E 364 384 43
E 365 366 4
E 365 385 8
E 366 367 42
E 366 386 4
E 367 368 41
E 367 387 44
E 368 369 45
E 368 388 2
E 369 370 7
E 369 389 7
E 370 371 5
E 370 390 2
E 371 372 4
E 371 391 9
E 372 373 6
E 372 392 5
E 373 374 6
E 373 393 3
E 374 375 8
E 374 394 9
E 375 376 4
E 375 395 4
E 376 377 5
E 376 396 43
E 377 378 4
E 377 397 4
E 378 379 7
E 378 398 5
E 379 380 8
E 379 399 4
E 380 400 9
E 381 382 40
E 382 383 38
E 383 384 42
E 384 385 4
E 385 386 4
E 386 387 2
E 387 388 4
E 388 389 5
E 389 390 9
E 390 391 37
E 391 392 8
E 392 393 5
E 393 394 6
E 394 395 6
E 395 396 44
E 396 397 1
E 397 398 6
E 398 399 1
E 399 400 1
END 

SECTION Terminals 
Terminals 188
TP 1 210
TP 2 213
TP 4 214
TP 10 215
TP 11 217
TP 12 219
TP 14 220
TP 18 221
TP 19 222
TP 25 224
TP 26 225
TP 29 226
TP 32 232
TP 33 235
TP 34 237
TP 37 240
TP 39 244
TP 41 245
TP 44 250
TP 45 251
TP 48 253
TP 51 255
TP 52 257
TP 53 258
TP 54 261
TP 57 262
TP 61 263
TP 62 265
TP 63 267
TP 64 269
TP 66 271
TP 68 273
TP 71 281
TP 74 282
TP 77 284
TP 78 285
TP 80 291
TP 81 292
TP 84 293
TP 85 294
TP 86 295
TP 87 296
TP 92 298
TP 93 299
TP 96 301
TP 98 304
TP 100 307
TP 101 309
TP 102 310
TP 104 312
TP 106 313
TP 107 315
TP 110 316
TP 111 317
TP 112 319
TP 114 320
TP 116 322
TP 117 326
TP 118 329
TP 119 332
TP 120 333
TP 131 334
TP 135 335
TP 137 337
TP 143 338
TP 145 339
TP 146 340
TP 147 343
TP 148 348
TP 151 350
TP 152 351
TP 153 352
TP 156 355
TP 163 356
TP 164 357
TP 165 363
TP 166 364
TP 167 366
TP 170 367
TP 171 368
TP 175 369
TP 177 374
TP 180 376
TP 181 379
TP 182 381
TP 184 382
TP 185 383
TP 189 384
TP 190 387
TP 192 390
TP 197 391
TP 199 395
TP 203 396
TP 209 400
END 
